SAT
1 -51 -31 55 -13 -52 -37 15 -72 -11 65 -23 7 39 -9 4 47 50 -22 -30 -33 -41 -63 45 8 -24 -54 -34 12 44 -20 -56 3 61 57 74 67 29 -68 -6 35 -71 64 -21 -66 -73 70 -36 -32 -53 -28 14 -60 49 5 43 58 18 -27 -69 2 75 10 -40 -46 26 19 25 -17 59 16 -62 -48 -42 38 0
